NAME : eil76.687.tour
COMMENT : Cost = 142_687
COMMENT : Found by LKH [Keld Helsgaun] Thu Nov 16 17:27:01 2017
TYPE : TOUR
DIMENSION : 80
TOUR_SECTION
1
43
23
56
41
42
64
22
61
69
21
28
62
79
63
16
3
44
32
9
39
31
55
25
50
18
24
49
80
73
2
30
29
45
27
13
57
15
5
37
20
70
60
71
36
47
48
74
78
33
51
17
40
12
72
58
10
38
65
66
11
53
35
7
26
6
77
4
52
54
59
14
19
8
46
34
67
76
75
68
-1
EOF
